NAME          STRESS_11
OBJSENSE
 MIN
ROWS
 N  OBJ
 G  C1
 G  C2
 G  C3
 G  C4
 G  C5
 G  C6
 G  C7
 G  C8
 L  C9
 L  C10
 L  C11
 L  C12
 L  C13
 L  C14
 L  C15
 L  C16
 L  C17
 L  C18
 L  C19
 L  C20
COLUMNS
    MARK0000  'MARKER'                 'INTORG'
    X1        OBJ                      5
    X1        C1                       2
    X1        C2                       1
    X1        C9                       2
    X1        C14                      1
    X2        OBJ                      6
    X2        C1                       1
    X2        C3                       2
    X2        C9                       3
    X2        C10                      1
    X3        OBJ                      4
    X3        C2                       3
    X3        C4                       1
    X3        C9                       1
    X3        C11                      1
    X4        OBJ                      7
    X4        C1                       1
    X4        C4                       2
    X4        C10                      1
    X4        C15                      1
    X5        OBJ                      5
    X5        C2                       2
    X5        C3                       1
    X5        C9                       2
    X5        C12                      1
    X6        OBJ                      6
    X6        C3                       2
    X6        C5                       2
    X6        C9                       1
    X6        C16                      1
    X7        OBJ                      5
    X7        C4                       2
    X7        C6                       2
    X7        C9                       1
    X7        C17                      1
    X8        OBJ                      7
    X8        C5                       2
    X8        C7                       2
    X8        C9                       1
    X8        C18                      1
    X9        OBJ                      6
    X9        C6                       2
    X9        C8                       2
    X9        C9                       1
    X9        C19                      1
    X10       OBJ                      8
    X10       C7                       2
    X10       C8                       3
    X10       C9                       1
    X10       C20                      1
    Z1        OBJ                      8
    Z1        C1                       2
    Z1        C9                       1
    Z1        C14                      1
    Z2        OBJ                      7
    Z2        C2                       2
    Z2        C9                       1
    Z2        C15                      1
    Z3        OBJ                      9
    Z3        C3                       3
    Z3        C9                       1
    Z3        C16                      1
    Z4        OBJ                      8
    Z4        C4                       2
    Z4        C9                       1
    Z4        C17                      1
    Z5        OBJ                      7
    Z5        C5                       2
    Z5        C9                       1
    Z5        C18                      1
    Z6        OBJ                      8
    Z6        C6                       2
    Z6        C9                       1
    Z6        C19                      1
    Z7        OBJ                      9
    Z7        C7                       2
    Z7        C9                       1
    Z7        C20                      1
    Z8        OBJ                      10
    Z8        C8                       3
    Z8        C9                       1
    Z8        C20                      1
    MARK0001  'MARKER'                 'INTEND'
    Y1        OBJ                      1
    Y1        C1                       1
    Y1        C10                      1
    Y1        C11                      1
    Y2        OBJ                      2
    Y2        C2                       1
    Y2        C3                       1
    Y2        C12                      1
    Y2        C13                      1
    Y3        OBJ                      2
    Y3        C4                       1
    Y3        C5                       1
    Y3        C14                      1
    Y3        C15                      1
    Y4        OBJ                      1
    Y4        C6                       1
    Y4        C7                       1
    Y4        C16                      1
    Y4        C17                      1
    Y5        OBJ                      2
    Y5        C8                       1
    Y5        C18                      1
    Y5        C19                      1
RHS
    RHS1      C1                      13
    RHS1      C2                      13
    RHS1      C3                      12
    RHS1      C4                      11
    RHS1      C5                      10
    RHS1      C6                      10
    RHS1      C7                       9
    RHS1      C8                       9
    RHS1      C9                      32
    RHS1      C10                      6
    RHS1      C11                      6
    RHS1      C12                      6
    RHS1      C13                      6
    RHS1      C14                      6
    RHS1      C15                      6
    RHS1      C16                      6
    RHS1      C17                      6
    RHS1      C18                      6
    RHS1      C19                      6
    RHS1      C20                      6
BOUNDS
 UP BND1      X1                       7
 UP BND1      X2                       7
 UP BND1      X3                       7
 UP BND1      X4                       7
 UP BND1      X5                       7
 UP BND1      X6                       7
 UP BND1      X7                       7
 UP BND1      X8                       7
 UP BND1      X9                       7
 UP BND1      X10                      7